p edge 2630 2535
e 1 2
e 1 3
e 1 4
e 1 5
e 1 6
e 1 7
e 1 8
e 1 9
e 1 10
e 1 11
e 1 12
e 1 13
e 1 14
e 1 15
e 1 16
e 1 17
e 1 18
e 1 19
e 20 21
e 20 22
e 20 23
e 20 24
e 20 25
e 20 26
e 20 27
e 20 28
e 20 29
e 20 30
e 31 32
e 31 33
e 31 34
e 31 35
e 31 36
e 31 37
e 31 38
e 31 39
e 31 40
e 31 41
e 31 42
e 31 43
e 31 44
e 31 45
e 31 46
e 31 47
e 31 48
e 49 50
e 49 51
e 49 52
e 49 53
e 49 54
e 49 55
e 49 56
e 49 57
e 49 58
e 49 59
e 49 60
e 49 61
e 49 62
e 49 63
e 49 64
e 65 66
e 65 67
e 65 68
e 65 69
e 65 70
e 65 71
e 65 72
e 65 73
e 65 74
e 65 75
e 65 76
e 65 77
e 65 78
e 65 79
e 65 80
e 65 81
e 65 82
e 65 83
e 65 84
e 65 85
e 65 86
e 65 87
e 65 88
e 65 89
e 65 90
e 65 91
e 65 92
e 65 93
e 65 94
e 65 95
e 65 96
e 65 97
e 65 98
e 65 99
e 100 101
e 100 102
e 100 103
e 100 104
e 100 105
e 100 106
e 100 107
e 100 108
e 100 109
e 100 110
e 100 111
e 100 112
e 100 113
e 100 114
e 100 115
e 100 116
e 100 117
e 100 118
e 100 119
e 100 120
e 100 121
e 100 122
e 123 124
e 123 125
e 123 126
e 123 127
e 123 128
e 123 129
e 123 130
e 123 131
e 123 132
e 123 133
e 123 134
e 123 135
e 123 136
e 123 137
e 123 138
e 123 139
e 123 140
e 123 141
e 123 142
e 123 143
e 123 144
e 123 145
e 146 147
e 146 148
e 146 149
e 146 150
e 146 151
e 146 152
e 146 153
e 146 154
e 146 155
e 146 156
e 146 157
e 146 158
e 146 159
e 146 160
e 146 161
e 146 162
e 146 163
e 146 164
e 146 165
e 146 166
e 146 167
e 146 168
e 146 169
e 146 170
e 146 171
e 146 172
e 146 173
e 146 174
e 146 175
e 146 176
e 146 177
e 146 178
e 146 179
e 146 180
e 146 181
e 146 182
e 146 183
e 146 184
e 146 185
e 186 187
e 186 188
e 186 189
e 186 190
e 186 191
e 186 192
e 186 193
e 186 194
e 186 195
e 186 196
e 186 197
e 186 198
e 186 199
e 186 200
e 186 201
e 186 202
e 186 203
e 186 204
e 186 205
e 186 206
e 186 207
e 186 208
e 186 209
e 186 210
e 186 211
e 212 213
e 212 214
e 212 215
e 212 216
e 212 217
e 212 218
e 212 219
e 212 220
e 212 221
e 212 222
e 212 223
e 212 224
e 212 225
e 212 226
e 212 227
e 212 228
e 212 229
e 212 230
e 212 231
e 212 232
e 212 233
e 212 234
e 212 235
e 212 236
e 212 237
e 212 238
e 212 239
e 212 240
e 212 241
e 212 242
e 212 243
e 212 244
e 212 245
e 212 246
e 212 247
e 248 249
e 248 250
e 248 251
e 248 252
e 248 253
e 248 254
e 248 255
e 248 256
e 248 257
e 248 258
e 248 259
e 248 260
e 248 261
e 248 262
e 248 263
e 248 264
e 248 265
e 248 266
e 248 267
e 248 268
e 248 269
e 248 270
e 248 271
e 248 272
e 248 273
e 248 274
e 275 276
e 275 277
e 275 278
e 275 279
e 275 280
e 275 281
e 275 282
e 275 283
e 275 284
e 275 285
e 275 286
e 275 287
e 275 288
e 275 289
e 275 290
e 275 291
e 275 292
e 275 293
e 275 294
e 275 295
e 275 296
e 275 297
e 275 298
e 299 300
e 299 301
e 299 302
e 299 303
e 299 304
e 299 305
e 299 306
e 299 307
e 299 308
e 299 309
e 299 310
e 299 311
e 299 312
e 299 313
e 299 314
e 299 315
e 299 316
e 299 317
e 299 318
e 299 319
e 299 320
e 299 321
e 299 322
e 299 323
e 299 324
e 299 325
e 299 326
e 299 327
e 299 328
e 299 329
e 299 330
e 299 331
e 299 332
e 299 333
e 299 334
e 299 335
e 299 336
e 299 337
e 338 339
e 338 340
e 338 341
e 338 342
e 338 343
e 338 344
e 338 345
e 338 346
e 338 347
e 338 348
e 338 349
e 338 350
e 338 351
e 338 352
e 338 353
e 338 354
e 338 355
e 338 356
e 338 357
e 338 358
e 338 359
e 338 360
e 338 361
e 338 362
e 338 363
e 364 365
e 364 366
e 364 367
e 364 368
e 364 369
e 364 370
e 364 371
e 364 372
e 364 373
e 364 374
e 364 375
e 364 376
e 364 377
e 364 378
e 364 379
e 364 380
e 364 381
e 364 382
e 364 383
e 364 384
e 364 385
e 364 386
e 364 387
e 364 388
e 364 389
e 364 390
e 364 391
e 364 392
e 364 393
e 364 394
e 364 395
e 396 397
e 396 398
e 396 399
e 396 400
e 396 401
e 396 402
e 396 403
e 396 404
e 396 405
e 396 406
e 396 407
e 396 408
e 396 409
e 396 410
e 396 411
e 396 412
e 396 413
e 396 414
e 396 415
e 396 416
e 396 417
e 396 418
e 396 419
e 396 420
e 396 421
e 396 422
e 396 423
e 396 424
e 396 425
e 396 426
e 396 427
e 428 429
e 428 430
e 428 431
e 428 432
e 428 433
e 428 434
e 428 435
e 428 436
e 428 437
e 428 438
e 428 439
e 428 440
e 428 441
e 428 442
e 428 443
e 428 444
e 428 445
e 428 446
e 428 447
e 428 448
e 428 449
e 428 450
e 428 451
e 428 452
e 428 453
e 428 454
e 455 456
e 455 457
e 455 458
e 455 459
e 455 460
e 455 461
e 455 462
e 455 463
e 455 464
e 455 465
e 455 466
e 455 467
e 455 468
e 455 469
e 470 471
e 470 472
e 470 473
e 470 474
e 470 475
e 470 476
e 470 477
e 470 478
e 470 479
e 470 480
e 470 481
e 470 482
e 470 483
e 470 484
e 470 485
e 470 486
e 470 487
e 470 488
e 470 489
e 470 490
e 491 492
e 491 493
e 491 494
e 491 495
e 491 496
e 491 497
e 491 498
e 491 499
e 491 500
e 491 501
e 491 502
e 491 503
e 491 504
e 491 505
e 491 506
e 491 507
e 491 508
e 491 509
e 491 510
e 491 511
e 491 512
e 491 513
e 491 514
e 491 515
e 491 516
e 491 517
e 491 518
e 491 519
e 491 520
e 491 521
e 491 522
e 491 523
e 524 525
e 524 526
e 524 527
e 524 528
e 524 529
e 524 530
e 524 531
e 524 532
e 524 533
e 524 534
e 524 535
e 524 536
e 524 537
e 524 538
e 524 539
e 524 540
e 524 541
e 524 542
e 524 543
e 524 544
e 524 545
e 524 546
e 524 547
e 524 548
e 524 549
e 524 550
e 524 551
e 524 552
e 524 553
e 524 554
e 524 555
e 524 556
e 524 557
e 524 558
e 524 559
e 524 560
e 524 561
e 524 562
e 524 563
e 524 564
e 565 566
e 565 567
e 565 568
e 565 569
e 565 570
e 565 571
e 565 572
e 565 573
e 565 574
e 565 575
e 565 576
e 565 577
e 565 578
e 565 579
e 565 580
e 565 581
e 565 582
e 565 583
e 565 584
e 585 586
e 585 587
e 585 588
e 585 589
e 585 590
e 585 591
e 585 592
e 585 593
e 585 594
e 585 595
e 585 596
e 585 597
e 585 598
e 585 599
e 585 600
e 585 601
e 585 602
e 585 603
e 585 604
e 585 605
e 585 606
e 585 607
e 585 608
e 585 609
e 610 611
e 610 612
e 610 613
e 610 614
e 610 615
e 610 616
e 610 617
e 610 618
e 610 619
e 610 620
e 610 621
e 610 622
e 610 623
e 610 624
e 610 625
e 610 626
e 610 627
e 628 629
e 628 630
e 628 631
e 628 632
e 628 633
e 628 634
e 628 635
e 628 636
e 628 637
e 628 638
e 628 639
e 628 640
e 628 641
e 628 642
e 628 643
e 644 645
e 644 646
e 644 647
e 644 648
e 644 649
e 644 650
e 644 651
e 644 652
e 644 653
e 644 654
e 644 655
e 644 656
e 644 657
e 644 658
e 644 659
e 644 660
e 644 661
e 644 662
e 644 663
e 644 664
e 644 665
e 666 667
e 666 668
e 666 669
e 666 670
e 666 671
e 666 672
e 666 673
e 666 674
e 666 675
e 666 676
e 666 677
e 666 678
e 666 679
e 666 680
e 666 681
e 666 682
e 666 683
e 666 684
e 666 685
e 666 686
e 666 687
e 666 688
e 666 689
e 666 690
e 666 691
e 666 692
e 666 693
e 666 694
e 666 695
e 666 696
e 697 698
e 697 699
e 697 700
e 697 701
e 697 702
e 697 703
e 697 704
e 697 705
e 697 706
e 697 707
e 697 708
e 697 709
e 697 710
e 697 711
e 697 712
e 697 713
e 697 714
e 697 715
e 697 716
e 697 717
e 697 718
e 697 719
e 697 720
e 697 721
e 697 722
e 697 723
e 697 724
e 725 726
e 725 727
e 725 728
e 725 729
e 725 730
e 725 731
e 725 732
e 725 733
e 725 734
e 725 735
e 725 736
e 725 737
e 725 738
e 725 739
e 725 740
e 725 741
e 725 742
e 725 743
e 725 744
e 725 745
e 725 746
e 725 747
e 725 748
e 725 749
e 725 750
e 725 751
e 725 752
e 725 753
e 725 754
e 725 755
e 725 756
e 725 757
e 725 758
e 725 759
e 725 760
e 725 761
e 762 763
e 762 764
e 762 765
e 762 766
e 762 767
e 762 768
e 762 769
e 762 770
e 762 771
e 762 772
e 762 773
e 762 774
e 762 775
e 762 776
e 762 777
e 762 778
e 762 779
e 762 780
e 762 781
e 762 782
e 762 783
e 762 784
e 762 785
e 762 786
e 762 787
e 762 788
e 762 789
e 762 790
e 762 791
e 762 792
e 793 794
e 793 795
e 793 796
e 793 797
e 793 798
e 793 799
e 793 800
e 793 801
e 793 802
e 793 803
e 793 804
e 793 805
e 793 806
e 793 807
e 793 808
e 793 809
e 793 810
e 793 811
e 793 812
e 793 813
e 793 814
e 793 815
e 793 816
e 793 817
e 793 818
e 793 819
e 793 820
e 793 821
e 793 822
e 793 823
e 793 824
e 825 826
e 825 827
e 825 828
e 825 829
e 825 830
e 825 831
e 825 832
e 825 833
e 825 834
e 825 835
e 825 836
e 825 837
e 825 838
e 825 839
e 825 840
e 825 841
e 825 842
e 843 844
e 843 845
e 843 846
e 843 847
e 843 848
e 843 849
e 843 850
e 843 851
e 843 852
e 843 853
e 843 854
e 843 855
e 843 856
e 843 857
e 843 858
e 843 859
e 843 860
e 843 861
e 843 862
e 843 863
e 843 864
e 843 865
e 843 866
e 843 867
e 843 868
e 843 869
e 843 870
e 843 871
e 843 872
e 843 873
e 843 874
e 875 876
e 875 877
e 875 878
e 875 879
e 875 880
e 875 881
e 875 882
e 875 883
e 875 884
e 875 885
e 875 886
e 875 887
e 875 888
e 875 889
e 875 890
e 875 891
e 875 892
e 875 893
e 875 894
e 875 895
e 875 896
e 875 897
e 875 898
e 875 899
e 875 900
e 875 901
e 875 902
e 875 903
e 875 904
e 875 905
e 875 906
e 875 907
e 875 908
e 875 909
e 875 910
e 875 911
e 875 912
e 875 913
e 875 914
e 875 915
e 916 917
e 916 918
e 916 919
e 916 920
e 916 921
e 916 922
e 916 923
e 916 924
e 916 925
e 916 926
e 916 927
e 916 928
e 916 929
e 930 931
e 930 932
e 930 933
e 930 934
e 930 935
e 930 936
e 930 937
e 930 938
e 930 939
e 930 940
e 930 941
e 930 942
e 930 943
e 930 944
e 930 945
e 930 946
e 930 947
e 930 948
e 930 949
e 930 950
e 930 951
e 930 952
e 930 953
e 930 954
e 930 955
e 930 956
e 930 957
e 930 958
e 930 959
e 960 961
e 960 962
e 960 963
e 960 964
e 960 965
e 960 966
e 960 967
e 960 968
e 960 969
e 960 970
e 960 971
e 960 972
e 960 973
e 960 974
e 960 975
e 960 976
e 960 977
e 960 978
e 960 979
e 960 980
e 960 981
e 960 982
e 960 983
e 960 984
e 960 985
e 960 986
e 960 987
e 960 988
e 960 989
e 960 990
e 960 991
e 960 992
e 960 993
e 960 994
e 960 995
e 960 996
e 960 997
e 960 998
e 960 999
e 960 1000
e 1001 1002
e 1001 1003
e 1001 1004
e 1001 1005
e 1001 1006
e 1001 1007
e 1001 1008
e 1001 1009
e 1001 1010
e 1001 1011
e 1001 1012
e 1013 1014
e 1013 1015
e 1013 1016
e 1013 1017
e 1013 1018
e 1013 1019
e 1013 1020
e 1013 1021
e 1013 1022
e 1013 1023
e 1013 1024
e 1013 1025
e 1013 1026
e 1013 1027
e 1013 1028
e 1013 1029
e 1013 1030
e 1013 1031
e 1013 1032
e 1013 1033
e 1013 1034
e 1035 1036
e 1035 1037
e 1035 1038
e 1035 1039
e 1035 1040
e 1035 1041
e 1035 1042
e 1035 1043
e 1035 1044
e 1035 1045
e 1035 1046
e 1035 1047
e 1035 1048
e 1035 1049
e 1035 1050
e 1035 1051
e 1035 1052
e 1035 1053
e 1035 1054
e 1035 1055
e 1035 1056
e 1035 1057
e 1035 1058
e 1035 1059
e 1035 1060
e 1035 1061
e 1035 1062
e 1035 1063
e 1035 1064
e 1035 1065
e 1066 1067
e 1066 1068
e 1066 1069
e 1066 1070
e 1066 1071
e 1066 1072
e 1066 1073
e 1066 1074
e 1066 1075
e 1066 1076
e 1066 1077
e 1066 1078
e 1066 1079
e 1066 1080
e 1066 1081
e 1066 1082
e 1066 1083
e 1066 1084
e 1066 1085
e 1066 1086
e 1066 1087
e 1066 1088
e 1066 1089
e 1066 1090
e 1066 1091
e 1066 1092
e 1066 1093
e 1066 1094
e 1095 1096
e 1095 1097
e 1095 1098
e 1095 1099
e 1095 1100
e 1095 1101
e 1095 1102
e 1095 1103
e 1095 1104
e 1095 1105
e 1095 1106
e 1095 1107
e 1095 1108
e 1095 1109
e 1095 1110
e 1095 1111
e 1095 1112
e 1095 1113
e 1095 1114
e 1095 1115
e 1095 1116
e 1095 1117
e 1095 1118
e 1095 1119
e 1095 1120
e 1095 1121
e 1095 1122
e 1095 1123
e 1095 1124
e 1095 1125
e 1126 1127
e 1126 1128
e 1126 1129
e 1126 1130
e 1126 1131
e 1126 1132
e 1126 1133
e 1126 1134
e 1126 1135
e 1126 1136
e 1126 1137
e 1126 1138
e 1126 1139
e 1126 1140
e 1126 1141
e 1126 1142
e 1126 1143
e 1126 1144
e 1126 1145
e 1126 1146
e 1126 1147
e 1126 1148
e 1126 1149
e 1126 1150
e 1126 1151
e 1126 1152
e 1126 1153
e 1126 1154
e 1155 1156
e 1155 1157
e 1155 1158
e 1155 1159
e 1155 1160
e 1155 1161
e 1155 1162
e 1155 1163
e 1155 1164
e 1155 1165
e 1155 1166
e 1155 1167
e 1155 1168
e 1155 1169
e 1155 1170
e 1155 1171
e 1155 1172
e 1155 1173
e 1155 1174
e 1155 1175
e 1176 1177
e 1176 1178
e 1176 1179
e 1176 1180
e 1176 1181
e 1176 1182
e 1176 1183
e 1176 1184
e 1176 1185
e 1176 1186
e 1176 1187
e 1176 1188
e 1176 1189
e 1176 1190
e 1176 1191
e 1176 1192
e 1176 1193
e 1176 1194
e 1176 1195
e 1176 1196
e 1176 1197
e 1176 1198
e 1176 1199
e 1176 1200
e 1176 1201
e 1176 1202
e 1176 1203
e 1176 1204
e 1176 1205
e 1176 1206
e 1176 1207
e 1176 1208
e 1209 1210
e 1209 1211
e 1209 1212
e 1209 1213
e 1209 1214
e 1209 1215
e 1209 1216
e 1209 1217
e 1209 1218
e 1209 1219
e 1209 1220
e 1209 1221
e 1209 1222
e 1209 1223
e 1209 1224
e 1209 1225
e 1209 1226
e 1209 1227
e 1209 1228
e 1209 1229
e 1209 1230
e 1209 1231
e 1209 1232
e 1209 1233
e 1209 1234
e 1209 1235
e 1209 1236
e 1209 1237
e 1209 1238
e 1209 1239
e 1209 1240
e 1209 1241
e 1209 1242
e 1209 1243
e 1244 1245
e 1244 1246
e 1244 1247
e 1244 1248
e 1244 1249
e 1244 1250
e 1244 1251
e 1244 1252
e 1244 1253
e 1244 1254
e 1244 1255
e 1244 1256
e 1244 1257
e 1244 1258
e 1244 1259
e 1244 1260
e 1244 1261
e 1244 1262
e 1244 1263
e 1244 1264
e 1244 1265
e 1244 1266
e 1244 1267
e 1268 1269
e 1268 1270
e 1268 1271
e 1268 1272
e 1268 1273
e 1268 1274
e 1268 1275
e 1268 1276
e 1268 1277
e 1268 1278
e 1268 1279
e 1268 1280
e 1268 1281
e 1268 1282
e 1268 1283
e 1268 1284
e 1268 1285
e 1268 1286
e 1268 1287
e 1268 1288
e 1268 1289
e 1268 1290
e 1268 1291
e 1268 1292
e 1268 1293
e 1268 1294
e 1268 1295
e 1268 1296
e 1268 1297
e 1268 1298
e 1268 1299
e 1268 1300
e 1268 1301
e 1268 1302
e 1268 1303
e 1268 1304
e 1268 1305
e 1306 1307
e 1306 1308
e 1306 1309
e 1306 1310
e 1306 1311
e 1306 1312
e 1306 1313
e 1306 1314
e 1306 1315
e 1306 1316
e 1306 1317
e 1306 1318
e 1306 1319
e 1306 1320
e 1306 1321
e 1306 1322
e 1306 1323
e 1306 1324
e 1325 1326
e 1325 1327
e 1325 1328
e 1325 1329
e 1325 1330
e 1325 1331
e 1325 1332
e 1325 1333
e 1325 1334
e 1325 1335
e 1325 1336
e 1325 1337
e 1338 1339
e 1338 1340
e 1338 1341
e 1338 1342
e 1338 1343
e 1338 1344
e 1338 1345
e 1338 1346
e 1338 1347
e 1338 1348
e 1338 1349
e 1338 1350
e 1338 1351
e 1338 1352
e 1338 1353
e 1338 1354
e 1338 1355
e 1338 1356
e 1338 1357
e 1338 1358
e 1338 1359
e 1338 1360
e 1338 1361
e 1338 1362
e 1338 1363
e 1338 1364
e 1338 1365
e 1338 1366
e 1338 1367
e 1338 1368
e 1338 1369
e 1338 1370
e 1371 1372
e 1371 1373
e 1371 1374
e 1371 1375
e 1371 1376
e 1371 1377
e 1371 1378
e 1371 1379
e 1371 1380
e 1371 1381
e 1371 1382
e 1371 1383
e 1371 1384
e 1371 1385
e 1386 1387
e 1386 1388
e 1386 1389
e 1386 1390
e 1386 1391
e 1386 1392
e 1386 1393
e 1386 1394
e 1386 1395
e 1386 1396
e 1386 1397
e 1386 1398
e 1386 1399
e 1386 1400
e 1386 1401
e 1386 1402
e 1386 1403
e 1386 1404
e 1386 1405
e 1386 1406
e 1386 1407
e 1386 1408
e 1386 1409
e 1386 1410
e 1386 1411
e 1386 1412
e 1386 1413
e 1386 1414
e 1415 1416
e 1415 1417
e 1415 1418
e 1415 1419
e 1415 1420
e 1415 1421
e 1415 1422
e 1415 1423
e 1415 1424
e 1415 1425
e 1415 1426
e 1415 1427
e 1415 1428
e 1415 1429
e 1415 1430
e 1415 1431
e 1415 1432
e 1415 1433
e 1415 1434
e 1435 1436
e 1435 1437
e 1435 1438
e 1435 1439
e 1435 1440
e 1435 1441
e 1435 1442
e 1435 1443
e 1435 1444
e 1435 1445
e 1435 1446
e 1435 1447
e 1435 1448
e 1435 1449
e 1435 1450
e 1435 1451
e 1435 1452
e 1435 1453
e 1435 1454
e 1435 1455
e 1456 1457
e 1456 1458
e 1456 1459
e 1456 1460
e 1456 1461
e 1456 1462
e 1456 1463
e 1456 1464
e 1456 1465
e 1456 1466
e 1456 1467
e 1456 1468
e 1456 1469
e 1456 1470
e 1456 1471
e 1456 1472
e 1456 1473
e 1456 1474
e 1456 1475
e 1456 1476
e 1456 1477
e 1456 1478
e 1456 1479
e 1456 1480
e 1456 1481
e 1456 1482
e 1456 1483
e 1456 1484
e 1456 1485
e 1486 1487
e 1486 1488
e 1486 1489
e 1486 1490
e 1486 1491
e 1486 1492
e 1486 1493
e 1486 1494
e 1486 1495
e 1486 1496
e 1486 1497
e 1486 1498
e 1486 1499
e 1486 1500
e 1486 1501
e 1486 1502
e 1486 1503
e 1486 1504
e 1486 1505
e 1486 1506
e 1486 1507
e 1486 1508
e 1486 1509
e 1486 1510
e 1486 1511
e 1486 1512
e 1486 1513
e 1486 1514
e 1486 1515
e 1486 1516
e 1486 1517
e 1486 1518
e 1486 1519
e 1486 1520
e 1486 1521
e 1486 1522
e 1486 1523
e 1486 1524
e 1486 1525
e 1526 1527
e 1526 1528
e 1526 1529
e 1526 1530
e 1526 1531
e 1526 1532
e 1526 1533
e 1526 1534
e 1526 1535
e 1526 1536
e 1526 1537
e 1526 1538
e 1526 1539
e 1526 1540
e 1526 1541
e 1526 1542
e 1526 1543
e 1526 1544
e 1526 1545
e 1526 1546
e 1526 1547
e 1526 1548
e 1526 1549
e 1526 1550
e 1526 1551
e 1526 1552
e 1526 1553
e 1526 1554
e 1526 1555
e 1556 1557
e 1556 1558
e 1556 1559
e 1556 1560
e 1556 1561
e 1556 1562
e 1556 1563
e 1556 1564
e 1556 1565
e 1556 1566
e 1556 1567
e 1556 1568
e 1556 1569
e 1556 1570
e 1556 1571
e 1556 1572
e 1556 1573
e 1556 1574
e 1556 1575
e 1556 1576
e 1556 1577
e 1556 1578
e 1556 1579
e 1556 1580
e 1556 1581
e 1556 1582
e 1583 1584
e 1583 1585
e 1583 1586
e 1583 1587
e 1583 1588
e 1583 1589
e 1583 1590
e 1583 1591
e 1583 1592
e 1583 1593
e 1583 1594
e 1583 1595
e 1583 1596
e 1583 1597
e 1583 1598
e 1583 1599
e 1583 1600
e 1583 1601
e 1583 1602
e 1583 1603
e 1583 1604
e 1583 1605
e 1583 1606
e 1583 1607
e 1608 1609
e 1608 1610
e 1608 1611
e 1608 1612
e 1608 1613
e 1608 1614
e 1608 1615
e 1608 1616
e 1608 1617
e 1608 1618
e 1608 1619
e 1608 1620
e 1608 1621
e 1608 1622
e 1608 1623
e 1608 1624
e 1608 1625
e 1608 1626
e 1608 1627
e 1608 1628
e 1608 1629
e 1608 1630
e 1608 1631
e 1608 1632
e 1608 1633
e 1608 1634
e 1608 1635
e 1608 1636
e 1608 1637
e 1608 1638
e 1608 1639
e 1608 1640
e 1608 1641
e 1608 1642
e 1608 1643
e 1608 1644
e 1608 1645
e 1608 1646
e 1608 1647
e 1608 1648
e 1649 1650
e 1649 1651
e 1649 1652
e 1649 1653
e 1649 1654
e 1649 1655
e 1649 1656
e 1649 1657
e 1649 1658
e 1649 1659
e 1649 1660
e 1649 1661
e 1649 1662
e 1649 1663
e 1649 1664
e 1649 1665
e 1649 1666
e 1649 1667
e 1649 1668
e 1649 1669
e 1649 1670
e 1649 1671
e 1649 1672
e 1649 1673
e 1649 1674
e 1649 1675
e 1649 1676
e 1649 1677
e 1649 1678
e 1649 1679
e 1649 1680
e 1649 1681
e 1682 1683
e 1682 1684
e 1682 1685
e 1682 1686
e 1682 1687
e 1682 1688
e 1682 1689
e 1682 1690
e 1682 1691
e 1682 1692
e 1682 1693
e 1682 1694
e 1682 1695
e 1682 1696
e 1682 1697
e 1682 1698
e 1682 1699
e 1682 1700
e 1682 1701
e 1682 1702
e 1682 1703
e 1682 1704
e 1682 1705
e 1682 1706
e 1682 1707
e 1682 1708
e 1682 1709
e 1682 1710
e 1682 1711
e 1682 1712
e 1682 1713
e 1682 1714
e 1682 1715
e 1682 1716
e 1682 1717
e 1682 1718
e 1682 1719
e 1682 1720
e 1682 1721
e 1682 1722
e 1723 1724
e 1723 1725
e 1723 1726
e 1723 1727
e 1723 1728
e 1723 1729
e 1723 1730
e 1723 1731
e 1723 1732
e 1723 1733
e 1723 1734
e 1723 1735
e 1723 1736
e 1723 1737
e 1723 1738
e 1723 1739
e 1723 1740
e 1723 1741
e 1723 1742
e 1723 1743
e 1723 1744
e 1723 1745
e 1723 1746
e 1723 1747
e 1723 1748
e 1723 1749
e 1723 1750
e 1723 1751
e 1723 1752
e 1723 1753
e 1723 1754
e 1723 1755
e 1723 1756
e 1723 1757
e 1723 1758
e 1723 1759
e 1723 1760
e 1723 1761
e 1762 1763
e 1762 1764
e 1762 1765
e 1762 1766
e 1762 1767
e 1762 1768
e 1762 1769
e 1762 1770
e 1762 1771
e 1762 1772
e 1762 1773
e 1762 1774
e 1762 1775
e 1762 1776
e 1762 1777
e 1762 1778
e 1762 1779
e 1762 1780
e 1762 1781
e 1762 1782
e 1762 1783
e 1762 1784
e 1762 1785
e 1762 1786
e 1762 1787
e 1762 1788
e 1762 1789
e 1762 1790
e 1791 1792
e 1791 1793
e 1791 1794
e 1791 1795
e 1791 1796
e 1791 1797
e 1791 1798
e 1791 1799
e 1791 1800
e 1791 1801
e 1791 1802
e 1791 1803
e 1791 1804
e 1791 1805
e 1791 1806
e 1791 1807
e 1791 1808
e 1791 1809
e 1791 1810
e 1791 1811
e 1791 1812
e 1791 1813
e 1791 1814
e 1791 1815
e 1791 1816
e 1791 1817
e 1791 1818
e 1791 1819
e 1791 1820
e 1791 1821
e 1791 1822
e 1791 1823
e 1791 1824
e 1791 1825
e 1791 1826
e 1791 1827
e 1791 1828
e 1791 1829
e 1791 1830
e 1831 1832
e 1831 1833
e 1831 1834
e 1831 1835
e 1831 1836
e 1831 1837
e 1831 1838
e 1831 1839
e 1831 1840
e 1831 1841
e 1831 1842
e 1831 1843
e 1831 1844
e 1831 1845
e 1831 1846
e 1831 1847
e 1831 1848
e 1849 1850
e 1849 1851
e 1849 1852
e 1849 1853
e 1849 1854
e 1849 1855
e 1849 1856
e 1849 1857
e 1849 1858
e 1849 1859
e 1849 1860
e 1849 1861
e 1849 1862
e 1849 1863
e 1849 1864
e 1849 1865
e 1849 1866
e 1849 1867
e 1849 1868
e 1849 1869
e 1849 1870
e 1849 1871
e 1849 1872
e 1849 1873
e 1849 1874
e 1849 1875
e 1849 1876
e 1849 1877
e 1849 1878
e 1849 1879
e 1849 1880
e 1849 1881
e 1849 1882
e 1849 1883
e 1884 1885
e 1884 1886
e 1884 1887
e 1884 1888
e 1884 1889
e 1884 1890
e 1884 1891
e 1884 1892
e 1884 1893
e 1884 1894
e 1884 1895
e 1884 1896
e 1884 1897
e 1884 1898
e 1884 1899
e 1884 1900
e 1884 1901
e 1884 1902
e 1884 1903
e 1884 1904
e 1884 1905
e 1906 1907
e 1906 1908
e 1906 1909
e 1906 1910
e 1906 1911
e 1906 1912
e 1906 1913
e 1906 1914
e 1906 1915
e 1906 1916
e 1906 1917
e 1906 1918
e 1906 1919
e 1906 1920
e 1906 1921
e 1906 1922
e 1906 1923
e 1906 1924
e 1906 1925
e 1906 1926
e 1906 1927
e 1906 1928
e 1906 1929
e 1906 1930
e 1906 1931
e 1906 1932
e 1906 1933
e 1906 1934
e 1906 1935
e 1906 1936
e 1906 1937
e 1906 1938
e 1906 1939
e 1940 1941
e 1940 1942
e 1940 1943
e 1940 1944
e 1940 1945
e 1940 1946
e 1940 1947
e 1940 1948
e 1940 1949
e 1940 1950
e 1940 1951
e 1940 1952
e 1940 1953
e 1940 1954
e 1940 1955
e 1940 1956
e 1940 1957
e 1940 1958
e 1940 1959
e 1960 1961
e 1960 1962
e 1960 1963
e 1960 1964
e 1960 1965
e 1960 1966
e 1960 1967
e 1960 1968
e 1960 1969
e 1960 1970
e 1960 1971
e 1960 1972
e 1960 1973
e 1960 1974
e 1960 1975
e 1960 1976
e 1960 1977
e 1960 1978
e 1960 1979
e 1960 1980
e 1960 1981
e 1960 1982
e 1960 1983
e 1960 1984
e 1960 1985
e 1986 1987
e 1986 1988
e 1986 1989
e 1986 1990
e 1986 1991
e 1986 1992
e 1986 1993
e 1986 1994
e 1986 1995
e 1986 1996
e 1986 1997
e 1986 1998
e 1986 1999
e 1986 2000
e 1986 2001
e 1986 2002
e 1986 2003
e 1986 2004
e 1986 2005
e 1986 2006
e 1986 2007
e 1986 2008
e 1986 2009
e 1986 2010
e 1986 2011
e 1986 2012
e 1986 2013
e 1986 2014
e 1986 2015
e 1986 2016
e 1986 2017
e 2018 2019
e 2018 2020
e 2018 2021
e 2018 2022
e 2018 2023
e 2018 2024
e 2018 2025
e 2018 2026
e 2018 2027
e 2018 2028
e 2018 2029
e 2018 2030
e 2018 2031
e 2018 2032
e 2018 2033
e 2018 2034
e 2018 2035
e 2018 2036
e 2018 2037
e 2018 2038
e 2018 2039
e 2018 2040
e 2018 2041
e 2018 2042
e 2043 2044
e 2043 2045
e 2043 2046
e 2043 2047
e 2043 2048
e 2043 2049
e 2043 2050
e 2043 2051
e 2043 2052
e 2043 2053
e 2043 2054
e 2043 2055
e 2043 2056
e 2043 2057
e 2043 2058
e 2043 2059
e 2043 2060
e 2043 2061
e 2043 2062
e 2043 2063
e 2043 2064
e 2043 2065
e 2043 2066
e 2043 2067
e 2043 2068
e 2043 2069
e 2043 2070
e 2043 2071
e 2043 2072
e 2043 2073
e 2043 2074
e 2043 2075
e 2043 2076
e 2043 2077
e 2043 2078
e 2043 2079
e 2043 2080
e 2043 2081
e 2082 2083
e 2082 2084
e 2082 2085
e 2082 2086
e 2082 2087
e 2082 2088
e 2082 2089
e 2082 2090
e 2082 2091
e 2082 2092
e 2082 2093
e 2082 2094
e 2082 2095
e 2082 2096
e 2082 2097
e 2082 2098
e 2082 2099
e 2082 2100
e 2082 2101
e 2082 2102
e 2082 2103
e 2082 2104
e 2082 2105
e 2082 2106
e 2082 2107
e 2082 2108
e 2082 2109
e 2082 2110
e 2082 2111
e 2082 2112
e 2082 2113
e 2082 2114
e 2115 2116
e 2115 2117
e 2115 2118
e 2115 2119
e 2115 2120
e 2115 2121
e 2115 2122
e 2115 2123
e 2115 2124
e 2115 2125
e 2115 2126
e 2115 2127
e 2115 2128
e 2115 2129
e 2115 2130
e 2115 2131
e 2115 2132
e 2115 2133
e 2115 2134
e 2115 2135
e 2115 2136
e 2115 2137
e 2115 2138
e 2115 2139
e 2115 2140
e 2115 2141
e 2115 2142
e 2115 2143
e 2115 2144
e 2115 2145
e 2115 2146
e 2115 2147
e 2115 2148
e 2149 2150
e 2149 2151
e 2149 2152
e 2149 2153
e 2149 2154
e 2149 2155
e 2149 2156
e 2149 2157
e 2149 2158
e 2149 2159
e 2149 2160
e 2149 2161
e 2149 2162
e 2149 2163
e 2149 2164
e 2149 2165
e 2149 2166
e 2149 2167
e 2149 2168
e 2149 2169
e 2149 2170
e 2171 2172
e 2171 2173
e 2171 2174
e 2171 2175
e 2171 2176
e 2171 2177
e 2171 2178
e 2171 2179
e 2171 2180
e 2171 2181
e 2171 2182
e 2171 2183
e 2171 2184
e 2171 2185
e 2171 2186
e 2171 2187
e 2171 2188
e 2171 2189
e 2171 2190
e 2171 2191
e 2171 2192
e 2171 2193
e 2171 2194
e 2171 2195
e 2171 2196
e 2171 2197
e 2171 2198
e 2171 2199
e 2171 2200
e 2201 2202
e 2201 2203
e 2201 2204
e 2201 2205
e 2201 2206
e 2201 2207
e 2201 2208
e 2201 2209
e 2201 2210
e 2201 2211
e 2201 2212
e 2201 2213
e 2201 2214
e 2201 2215
e 2216 2217
e 2216 2218
e 2216 2219
e 2216 2220
e 2216 2221
e 2216 2222
e 2216 2223
e 2216 2224
e 2216 2225
e 2216 2226
e 2216 2227
e 2216 2228
e 2216 2229
e 2216 2230
e 2216 2231
e 2216 2232
e 2216 2233
e 2216 2234
e 2216 2235
e 2216 2236
e 2216 2237
e 2216 2238
e 2216 2239
e 2216 2240
e 2216 2241
e 2216 2242
e 2216 2243
e 2216 2244
e 2216 2245
e 2216 2246
e 2216 2247
e 2216 2248
e 2216 2249
e 2216 2250
e 2216 2251
e 2216 2252
e 2253 2254
e 2253 2255
e 2253 2256
e 2253 2257
e 2253 2258
e 2253 2259
e 2253 2260
e 2253 2261
e 2253 2262
e 2253 2263
e 2253 2264
e 2253 2265
e 2253 2266
e 2253 2267
e 2253 2268
e 2253 2269
e 2253 2270
e 2253 2271
e 2253 2272
e 2253 2273
e 2253 2274
e 2253 2275
e 2253 2276
e 2253 2277
e 2253 2278
e 2253 2279
e 2253 2280
e 2253 2281
e 2253 2282
e 2253 2283
e 2253 2284
e 2285 2286
e 2285 2287
e 2285 2288
e 2285 2289
e 2285 2290
e 2285 2291
e 2285 2292
e 2285 2293
e 2285 2294
e 2285 2295
e 2285 2296
e 2285 2297
e 2285 2298
e 2285 2299
e 2285 2300
e 2285 2301
e 2285 2302
e 2285 2303
e 2285 2304
e 2285 2305
e 2285 2306
e 2285 2307
e 2285 2308
e 2285 2309
e 2285 2310
e 2311 2312
e 2311 2313
e 2311 2314
e 2311 2315
e 2311 2316
e 2311 2317
e 2311 2318
e 2311 2319
e 2311 2320
e 2311 2321
e 2311 2322
e 2311 2323
e 2311 2324
e 2311 2325
e 2311 2326
e 2311 2327
e 2311 2328
e 2311 2329
e 2311 2330
e 2311 2331
e 2311 2332
e 2311 2333
e 2311 2334
e 2311 2335
e 2311 2336
e 2311 2337
e 2311 2338
e 2311 2339
e 2311 2340
e 2311 2341
e 2311 2342
e 2311 2343
e 2344 2345
e 2344 2346
e 2344 2347
e 2344 2348
e 2344 2349
e 2344 2350
e 2344 2351
e 2344 2352
e 2344 2353
e 2344 2354
e 2344 2355
e 2344 2356
e 2344 2357
e 2344 2358
e 2344 2359
e 2344 2360
e 2344 2361
e 2344 2362
e 2344 2363
e 2344 2364
e 2344 2365
e 2344 2366
e 2344 2367
e 2344 2368
e 2344 2369
e 2344 2370
e 2344 2371
e 2344 2372
e 2344 2373
e 2344 2374
e 2344 2375
e 2344 2376
e 2344 2377
e 2344 2378
e 2344 2379
e 2344 2380
e 2344 2381
e 2344 2382
e 2344 2383
e 2344 2384
e 2385 2386
e 2385 2387
e 2385 2388
e 2385 2389
e 2385 2390
e 2385 2391
e 2385 2392
e 2385 2393
e 2385 2394
e 2385 2395
e 2396 2397
e 2396 2398
e 2396 2399
e 2396 2400
e 2396 2401
e 2396 2402
e 2396 2403
e 2396 2404
e 2396 2405
e 2396 2406
e 2396 2407
e 2396 2408
e 2396 2409
e 2396 2410
e 2396 2411
e 2396 2412
e 2396 2413
e 2396 2414
e 2415 2416
e 2415 2417
e 2415 2418
e 2415 2419
e 2415 2420
e 2415 2421
e 2415 2422
e 2415 2423
e 2415 2424
e 2415 2425
e 2415 2426
e 2415 2427
e 2415 2428
e 2415 2429
e 2415 2430
e 2415 2431
e 2415 2432
e 2415 2433
e 2415 2434
e 2415 2435
e 2415 2436
e 2415 2437
e 2415 2438
e 2415 2439
e 2415 2440
e 2415 2441
e 2415 2442
e 2415 2443
e 2444 2445
e 2444 2446
e 2444 2447
e 2444 2448
e 2444 2449
e 2444 2450
e 2444 2451
e 2444 2452
e 2444 2453
e 2444 2454
e 2444 2455
e 2444 2456
e 2444 2457
e 2444 2458
e 2444 2459
e 2444 2460
e 2444 2461
e 2444 2462
e 2444 2463
e 2444 2464
e 2444 2465
e 2466 2467
e 2466 2468
e 2466 2469
e 2466 2470
e 2466 2471
e 2466 2472
e 2466 2473
e 2466 2474
e 2466 2475
e 2466 2476
e 2466 2477
e 2466 2478
e 2466 2479
e 2466 2480
e 2466 2481
e 2466 2482
e 2466 2483
e 2466 2484
e 2466 2485
e 2466 2486
e 2466 2487
e 2466 2488
e 2466 2489
e 2466 2490
e 2466 2491
e 2466 2492
e 2466 2493
e 2466 2494
e 2466 2495
e 2466 2496
e 2466 2497
e 2466 2498
e 2466 2499
e 2500 2501
e 2500 2502
e 2500 2503
e 2500 2504
e 2500 2505
e 2500 2506
e 2500 2507
e 2500 2508
e 2500 2509
e 2500 2510
e 2500 2511
e 2500 2512
e 2500 2513
e 2500 2514
e 2500 2515
e 2500 2516
e 2500 2517
e 2500 2518
e 2500 2519
e 2500 2520
e 2500 2521
e 2500 2522
e 2500 2523
e 2500 2524
e 2500 2525
e 2500 2526
e 2527 2528
e 2527 2529
e 2527 2530
e 2527 2531
e 2527 2532
e 2527 2533
e 2527 2534
e 2527 2535
e 2527 2536
e 2527 2537
e 2527 2538
e 2527 2539
e 2527 2540
e 2527 2541
e 2527 2542
e 2527 2543
e 2527 2544
e 2527 2545
e 2527 2546
e 2547 2548
e 2547 2549
e 2547 2550
e 2547 2551
e 2547 2552
e 2547 2553
e 2547 2554
e 2547 2555
e 2547 2556
e 2547 2557
e 2547 2558
e 2547 2559
e 2547 2560
e 2547 2561
e 2547 2562
e 2547 2563
e 2547 2564
e 2547 2565
e 2547 2566
e 2547 2567
e 2547 2568
e 2547 2569
e 2547 2570
e 2547 2571
e 2547 2572
e 2547 2573
e 2547 2574
e 2547 2575
e 2576 2577
e 2576 2578
e 2576 2579
e 2576 2580
e 2576 2581
e 2576 2582
e 2576 2583
e 2576 2584
e 2576 2585
e 2576 2586
e 2576 2587
e 2576 2588
e 2576 2589
e 2576 2590
e 2576 2591
e 2592 2593
e 2592 2594
e 2592 2595
e 2592 2596
e 2592 2597
e 2592 2598
e 2592 2599
e 2592 2600
e 2592 2601
e 2592 2602
e 2592 2603
e 2592 2604
e 2592 2605
e 2592 2606
e 2592 2607
e 2592 2608
e 2592 2609
e 2592 2610
e 2592 2611
e 2592 2612
e 2592 2613
e 2592 2614
e 2592 2615
e 2592 2616
e 2592 2617
e 2592 2618
e 2592 2619
e 2592 2620
e 2592 2621
e 2592 2622
e 2592 2623
e 2592 2624
e 2592 2625
e 2592 2626
e 2592 2627
e 2592 2628
e 2592 2629
e 2592 2630
